
GUB cover cuts applied:  3
Cover cuts applied:  23
Mixed integer rounding cuts applied:  5
Zero-half cuts applied:  28
Gomory fractional cuts applied:  5

Root node processing (before b&c):
  Real time             =    0.98 sec. (871.44 ticks)
Parallel b&c, 4 threads:
  Real time             =    0.51 sec. (432.55 ticks)
  Sync time (average)   =    0.13 sec.
  Wait time (average)   =    0.00 sec.
                          ------------
Total (root+branch&cut) =    1.49 sec. (1303.99 ticks)
Version identifier: 12.10.0.0 | 2019-11-26 | 843d4de
CPXPARAM_MIP_Interval                            10
CPXPARAM_MIP_Tolerances_AbsMIPGap                0.98999999999999999
Tried aggregator 2 times.
MIP Presolve eliminated 69877 rows and 69936 columns.
MIP Presolve modified 1 coefficients.
Aggregator did 115 substitutions.
Reduced MIP has 7529 rows, 5843 columns, and 23405 nonzeros.
Reduced MIP has 5843 binaries, 0 generals, 0 SOSs, and 0 indicators.
Presolve time = 0.11 sec. (91.92 ticks)
Probing fixed 44 vars, tightened 0 bounds.
Probing changed sense of 92 constraints.
Probing time = 0.02 sec. (10.36 ticks)
Tried aggregator 2 times.
Detecting symmetries...
MIP Presolve eliminated 368 rows and 268 columns.
Aggregator did 54 substitutions.
Reduced MIP has 7107 rows, 5521 columns, and 22082 nonzeros.
Reduced MIP has 5521 binaries, 0 generals, 0 SOSs, and 0 indicators.
Presolve time = 0.04 sec. (37.03 ticks)
Probing time = 0.01 sec. (8.46 ticks)
Clique table members: 13188.
MIP emphasis: balance optimality and feasibility.
MIP search method: dynamic search.
Parallel mode: deterministic, using up to 4 threads.
Root relaxation solution time = 0.11 sec. (73.20 ticks)

        Nodes                                         Cuts/
   Node  Left     Objective  IInf  Best Integer    Best Bound    ItCnt     Gap

      0     0       27.3333   644                     27.3333     1209         
      0     0       27.3333   644                    Cuts: 31     2384         
*     0+    0                           26.0000       27.3333             5.13%
      0     0       27.3333   644       26.0000       Cuts: 5     3014    5.13%
      0     0       27.3222   644       26.0000       Cuts: 6     3516    5.09%
      0     0       27.2903   644       26.0000     Cuts: 167     3929    4.96%
      0     0       27.2632   644       26.0000     Cuts: 175     4317    4.86%
Detecting symmetries...
      0     0       27.2532   644       26.0000     Cuts: 135     4752    4.82%
      0     0       27.2500   644       26.0000     Cuts: 180     5318    4.81%
      0     0       27.2466   644       26.0000     Cuts: 166     5651    4.79%
      0     0       27.2429   644       26.0000     Cuts: 190     5966    4.78%
      0     0       27.2427   644       26.0000     Cuts: 125     6215    4.78%
Detecting symmetries...
      0     2       27.2427  1160       26.0000       27.2397     6215    4.77%
Elapsed time = 2.94 sec. (2055.67 ticks, tree = 0.02 MB, solutions = 1)
the number of Nodes = 9
